Version identifier: 20.1.0.0 | 2020-11-10 | 9bedb6d68
Tried aggregator 3 times.
MIP Presolve eliminated 1776 rows and 945 columns.
MIP Presolve modified 3267 coefficients.
Aggregator did 135 substitutions.
Reduced MIP has 1295 rows, 1127 columns, and 4039 nonzeros.
Reduced MIP has 262 binaries, 865 generals, 0 SOSs, and 0 indicators.
Presolve time = 0.02 sec. (8.13 ticks)
Found incumbent of value 1072.000000 after 0.03 sec. (13.22 ticks)
Probing fixed 34 vars, tightened 320 bounds.
Probing time = 0.00 sec. (1.37 ticks)
Tried aggregator 2 times.
MIP Presolve eliminated 492 rows and 148 columns.
MIP Presolve modified 186 coefficients.
Aggregator did 45 substitutions.
Reduced MIP has 758 rows, 934 columns, and 2342 nonzeros.
Reduced MIP has 362 binaries, 572 generals, 0 SOSs, and 0 indicators.
Presolve time = 0.01 sec. (3.12 ticks)
Probing time = 0.00 sec. (0.24 ticks)
Tried aggregator 1 time.
Detecting symmetries...
MIP Presolve modified 198 coefficients.
Reduced MIP has 758 rows, 934 columns, and 2342 nonzeros.
Reduced MIP has 362 binaries, 572 generals, 0 SOSs, and 0 indicators.
Presolve time = 0.00 sec. (2.01 ticks)
Probing time = 0.00 sec. (0.23 ticks)
Clique table members: 117.
MIP emphasis: balance optimality and feasibility.
MIP search method: dynamic search.
Parallel mode: deterministic, using up to 24 threads.
Root relaxation solution time = 0.01 sec. (3.47 ticks)

        Nodes                                         Cuts/
   Node  Left     Objective  IInf  Best Integer    Best Bound    ItCnt     Gap

*     0+    0                         1072.0000        0.0000           100.00%
*     0+    0                           32.0000        0.0000           100.00%
      0     0        0.5625   134       32.0000        0.5625      295   98.24%
      0     0        1.9091   214       32.0000      Cuts: 96      449   94.03%
*     0+    0                           12.0000        1.9091            84.09%
      0     0        2.6695   156       12.0000      Cuts: 84      551   77.75%
      0     0        2.6973   270       12.0000      Cuts: 38      602   77.52%
      0     0        2.9926   280       12.0000      Cuts: 36      755   75.06%
      0     0        3.0660   289       12.0000      Cuts: 50      801   74.45%
      0     0        3.1426   265       12.0000      Cuts: 28      873   73.81%
      0     0        3.1674   277       12.0000      Cuts: 86      923   73.60%
*     0+    0                            8.0000        3.1674            60.41%
      0     0        cutoff              8.0000        8.0000     1067    0.00%
Elapsed time = 0.23 sec. (101.63 ticks, tree = 0.01 MB, solutions = 4)

Clique cuts applied:  15
Implied bound cuts applied:  27
Flow cuts applied:  1
Mixed integer rounding cuts applied:  20
Zero-half cuts applied:  97
Lift and project cuts applied:  2
Gomory fractional cuts applied:  3

Root node processing (before b&c):
  Real time             =    0.23 sec. (101.75 ticks)
Parallel b&c, 24 threads:
  Real time             =    0.00 sec. (0.00 ticks)
  Sync time (average)   =    0.00 sec.
  Wait time (average)   =    0.00 sec.
                          ------------
Total (root+branch&cut) =    0.23 sec. (101.75 ticks)

Solution status = Optimal
Solution LB = 8
Solution UB = 8
Runtime = 0.236559 seconds
	Command being timed: "/home/min/git_repos/CS598MEBProject/CNT-ILP/build/cnt -s 2 ./output/k6_n40/simC_c1_k6_n40_u1_s1_del04.input-left.cnp"
	User time (seconds): 2.42
	System time (seconds): 0.02
	Percent of CPU this job got: 879%
	Elapsed (wall clock) time (h:mm:ss or m:ss): 0:00.27
	Average shared text size (kbytes): 0
	Average unshared data size (kbytes): 0
	Average stack size (kbytes): 0
	Average total size (kbytes): 0
	Maximum resident set size (kbytes): 65772
	Average resident set size (kbytes): 0
	Major (requiring I/O) page faults: 0
	Minor (reclaiming a frame) page faults: 13745
	Voluntary context switches: 2198
	Involuntary context switches: 281
	Swaps: 0
	File system inputs: 0
	File system outputs: 16
	Socket messages sent: 0
	Socket messages received: 0
	Signals delivered: 0
	Page size (bytes): 4096
	Exit status: 0
